(declare-const |j'| Int)
(declare-const tmp___4 Int)
(declare-const term_to_project_onto0 Real)
(declare-const term_to_project_onto1 Real)
(declare-const |tmp___4'| Int)
(declare-const term_to_project_onto Real)
(declare-const |y'| Int)
(declare-const term_to_project_onto2 Real)
(declare-const i Int)
(declare-const havoc Int)
(declare-const phi_x Int)
(declare-const |x'| Int)
(declare-const phi_y Int)
(declare-const x Int)
(declare-const j Int)
(declare-const y Int)
(assert (and (<= (- j) 0) (or (<= (+ havoc 1) 0) (<= (+ (- havoc) 1) 0))
               (or (and (or (<= (+ (- i) j 1) 0) (<= (+ i (- j) 1) 0))
                          (= (+ (- phi_x) x -1) 0) (= (+ (- phi_y) y 1) 0))
                     (and (= (+ (- i) j) 0) (= (+ (- phi_x) x 1) 0)
                            (= (+ (- phi_y) y -1) 0)))
               (= (+ |tmp___4'| (- havoc)) 0) (= (+ |y'| (- phi_y)) 0)
               (= (+ |x'| (- phi_x)) 0) (= (+ |j'| (- j) -1) 0)
               (= term_to_project_onto2 (+ |j'| (- j)))
               (= term_to_project_onto1 (+ |x'| (- x)))
               (= term_to_project_onto0 (+ |y'| (- y)))
               (= term_to_project_onto (+ |tmp___4'| (- tmp___4)))))
(check-sat)
